
Gurobi 11.0.0 (win64) logging started Sat Jun 15 09:51:12 2024

Set parameter LogFile to value "./GurobiLog/stage_1_iter_9.log"
Gurobi Optimizer version 11.0.0 build v11.0.0rc2 (win64 - Windows 10.0 (18363.2))

CPU model: Intel(R) Core(TM) i7-8700 CPU @ 3.20GHz, instruction set [SSE2|AVX|AVX2]
Thread count: 6 physical cores, 12 logical processors, using up to 1 threads

Optimize a model with 1490 rows, 20459 columns and 61876 nonzeros
Coefficient statistics:
  Matrix range     [4e-03, 7e+03]
  Objective range  [1e-01, 2e+05]
  Bounds range     [1e+01, 1e+06]
  RHS range        [1e+00, 4e+04]
LP warm-start: use basis
Iteration    Objective       Primal Inf.    Dual Inf.      Time
       0    2.3610431e+04   1.229082e+04   0.000000e+00      0s
     267    4.6342434e+04   0.000000e+00   0.000000e+00      0s

Solved in 267 iterations and 0.02 seconds (0.03 work units)
Optimal objective  4.634243436e+04

Gurobi 11.0.0 (win64) logging started Sat Jun 15 10:49:41 2024

Set parameter LogFile to value "./GurobiLog/stage_1_iter_9.log"
Gurobi Optimizer version 11.0.0 build v11.0.0rc2 (win64 - Windows 10.0 (18363.2))

CPU model: Intel(R) Core(TM) i7-8700 CPU @ 3.20GHz, instruction set [SSE2|AVX|AVX2]
Thread count: 6 physical cores, 12 logical processors, using up to 1 threads

Optimize a model with 1490 rows, 20459 columns and 61976 nonzeros
Coefficient statistics:
  Matrix range     [7e-03, 7e+03]
  Objective range  [1e-01, 2e+05]
  Bounds range     [1e+01, 8e+05]
  RHS range        [1e+00, 1e+05]
LP warm-start: use basis
Iteration    Objective       Primal Inf.    Dual Inf.      Time
       0    4.2274447e+04   6.033511e+03   0.000000e+00      0s
     216    4.8995435e+04   0.000000e+00   0.000000e+00      0s

Solved in 216 iterations and 0.02 seconds (0.03 work units)
Optimal objective  4.899543465e+04
